<number of tasks>
45

<cycle time>
62

<task times>
1 9
2 9
3 10
4 10
5 17
6 17
7 13
8 13
9 20
10 20
11 10
12 11
13 6
14 22
15 11
16 19
17 12
18 3
19 7
20 4
21 55
22 14
23 27
24 29
25 26
26 6
27 5
28 24
29 4
30 5
31 7
32 4
33 15
34 3
35 7
36 9
37 4
38 7
39 5
40 4
41 21
42 12
43 6
44 5
45 5

<precedence relations>
1,3
1,7
2,4
2,8
3,5
4,6
5,9
6,10
7,9
7,14
8,10
8,14
9,41
10,41
11,13
12,13
12,37
13,14
13,15
14,17
14,25
14,29
14,30
14,31
14,32
15,16
15,18
15,23
15,24
16,19
17,26
17,27
18,19
19,20
19,33
20,21
21,22
22,28
23,33
24,33
25,26
26,38
27,28
27,33
28,38
29,41
30,41
31,41
32,41
33,34
33,35
33,36
34,38
35,40
36,38
37,43
38,40
39,41
40,41
41,42
42,44
42,45

<setup times forward>
1,2:3
1,4:2
1,6:2
1,7:1
1,8:3
1,10:1
1,16:3
1,18:1
1,19:1
1,20:1
1,21:2
1,23:1
1,24:2
1,37:3
1,43:2
2,1:3
2,3:3
2,4:5
2,7:2
2,9:2
2,11:3
2,12:3
2,13:3
2,15:3
2,18:2
2,19:2
2,20:2
2,21:5
2,22:3
2,23:2
2,24:5
2,39:3
2,43:5
3,2:3
3,4:2
3,5:3
3,6:2
3,7:1
3,8:3
3,10:1
3,14:1
3,16:3
3,18:1
3,19:1
3,20:1
3,21:2
3,23:1
3,24:2
3,26:3
3,27:3
3,28:3
3,29:1
3,30:2
3,32:1
3,33:3
3,34:3
3,35:2
3,36:3
3,37:3
3,38:2
3,40:2
3,43:2
4,1:2
4,3:2
4,5:5
4,7:3
4,8:5
4,9:3
4,11:2
4,12:2
4,13:2
4,14:3
4,15:2
4,16:5
4,17:2
4,18:3
4,19:3
4,20:3
4,22:2
4,23:3
4,25:2
4,26:1
4,27:1
4,28:1
4,29:3
4,31:2
4,32:3
4,33:1
4,34:1
4,35:4
4,36:1
4,37:5
4,38:4
4,39:2
4,40:4
5,4:5
5,6:5
5,7:2
5,9:2
5,10:2
5,11:3
5,12:3
5,13:3
5,14:2
5,15:3
5,17:3
5,18:2
5,19:2
5,20:2
5,21:5
5,22:3
5,23:2
5,24:5
5,25:3
5,26:6
5,27:6
5,28:6
5,29:2
5,30:5
5,31:3
5,32:2
5,33:6
5,34:6
5,35:1
5,36:6
5,38:1
5,39:3
5,40:1
5,43:5
6,1:2
6,3:2
6,5:5
6,7:3
6,8:5
6,9:3
6,10:3
6,11:2
6,12:2
6,13:2
6,14:3
6,15:2
6,16:5
6,17:2
6,18:3
6,19:3
6,20:3
6,22:2
6,23:3
6,25:2
6,26:1
6,27:1
6,28:1
6,29:3
6,31:2
6,32:3
6,33:1
6,34:1
6,35:4
6,36:1
6,37:5
6,38:4
6,39:2
6,40:4
7,2:2
7,3:1
7,4:3
7,5:2
7,6:3
7,8:2
7,11:1
7,12:1
7,13:1
7,15:1
7,16:2
7,21:3
7,22:1
7,24:3
7,37:2
7,39:1
7,43:3
8,1:3
8,3:3
8,4:5
8,6:5
8,7:2
8,9:2
8,10:2
8,11:3
8,12:3
8,13:3
8,14:2
8,15:3
8,18:2
8,19:2
8,20:2
8,21:5
8,22:3
8,23:2
8,24:5
8,39:3
8,43:5
9,2:2
9,4:3
9,6:3
9,8:2
9,11:1
9,12:1
9,13:1
9,15:1
9,16:2
9,17:1
9,21:3
9,22:1
9,24:3
9,25:1
9,26:4
9,27:4
9,28:4
9,30:3
9,31:1
9,33:4
9,34:4
9,35:1
9,36:4
9,37:2
9,38:1
9,39:1
9,40:1
9,41:1
9,43:3
10,1:1
10,3:1
10,5:2
10,11:1
10,12:1
10,13:1
10,15:1
10,16:2
10,17:1
10,21:3
10,22:1
10,24:3
10,25:1
10,26:4
10,27:4
10,28:4
10,30:3
10,31:1
10,33:4
10,34:4
10,35:1
10,36:4
10,37:2
10,38:1
10,39:1
10,40:1
10,41:1
10,43:3
11,2:3
11,4:2
11,5:3
11,6:2
11,7:1
11,8:3
11,9:1
11,10:1
11,37:3
11,43:2
12,2:3
12,4:2
12,5:3
12,6:2
12,7:1
12,8:3
12,9:1
12,10:1
12,37:3
13,2:3
13,4:2
13,5:3
13,6:2
13,7:1
13,8:3
13,9:1
13,10:1
13,14:1
13,37:3
13,43:2
14,3:1
14,4:3
14,5:2
14,6:3
14,15:1
14,16:2
14,17:1
14,21:3
14,22:1
14,24:3
14,25:1
14,30:3
14,31:1
14,37:2
14,39:1
14,43:3
15,2:3
15,4:2
15,5:3
15,6:2
15,7:1
15,8:3
15,9:1
15,10:1
15,14:1
15,16:3
15,18:1
15,23:1
15,24:2
15,26:3
15,27:3
15,29:1
15,30:2
15,32:1
15,37:3
15,43:2
16,1:3
16,3:3
16,4:5
16,6:5
16,7:2
16,9:2
16,10:2
16,14:2
16,17:3
16,18:2
16,19:2
16,23:2
16,24:5
16,25:3
16,26:6
16,27:6
16,29:2
16,30:5
16,31:3
16,32:2
16,39:3
16,43:5
17,4:2
17,5:3
17,6:2
17,9:1
17,10:1
17,16:3
17,18:1
17,19:1
17,20:1
17,21:2
17,23:1
17,24:2
17,26:3
17,27:3
17,29:1
17,30:2
17,32:1
17,37:3
17,43:2
18,1:1
18,2:2
18,3:1
18,4:3
18,5:2
18,6:3
18,8:2
18,16:2
18,17:1
18,24:3
18,25:1
18,26:4
18,27:4
18,30:3
18,31:1
18,37:2
18,39:1
18,43:3
19,1:1
19,2:2
19,3:1
19,4:3
19,5:2
19,6:3
19,8:2
19,17:1
19,24:3
19,25:1
19,26:4
19,27:4
19,30:3
19,31:1
19,33:4
19,37:2
19,39:1
19,43:3
20,1:1
20,2:2
20,3:1
20,4:3
20,5:2
20,6:3
20,8:2
20,17:1
20,21:3
20,24:3
20,25:1
20,26:4
20,27:4
20,30:3
20,31:1
20,33:4
20,34:4
20,35:1
20,36:4
20,37:2
20,39:1
20,43:3
21,1:2
21,2:5
21,3:2
21,5:5
21,7:3
21,8:5
21,9:3
21,10:3
21,14:3
21,17:2
21,22:2
21,23:3
21,25:2
21,26:1
21,27:1
21,29:3
21,31:2
21,32:3
21,33:1
21,34:1
21,35:4
21,36:1
21,37:5
21,39:2
22,2:3
22,4:2
22,5:3
22,6:2
22,7:1
22,8:3
22,9:1
22,10:1
22,14:1
22,23:1
22,24:2
22,26:3
22,27:3
22,28:3
22,29:1
22,30:2
22,32:1
22,33:3
22,34:3
22,35:2
22,36:3
22,37:3
22,43:2
23,1:1
23,2:2
23,3:1
23,4:3
23,5:2
23,6:3
23,8:2
23,16:2
23,17:1
23,21:3
23,22:1
23,24:3
23,25:1
23,26:4
23,27:4
23,28:4
23,30:3
23,31:1
23,33:4
23,37:2
23,39:1
23,43:3
24,1:2
24,2:5
24,3:2
24,5:5
24,7:3
24,8:5
24,9:3
24,10:3
24,14:3
24,16:5
24,17:2
24,18:3
24,19:3
24,20:3
24,22:2
24,23:3
24,25:2
24,26:1
24,27:1
24,28:1
24,29:3
24,31:2
24,32:3
24,33:1
24,37:5
24,39:2
25,4:2
25,5:3
25,6:2
25,9:1
25,10:1
25,16:3
25,18:1
25,19:1
25,20:1
25,21:2
25,23:1
25,24:2
25,26:3
25,27:3
25,28:3
25,29:1
25,30:2
25,32:1
25,33:3
25,34:3
25,35:2
25,36:3
25,37:3
25,43:2
26,3:3
26,4:1
26,5:6
26,6:1
26,9:4
26,10:4
26,15:3
26,16:6
26,18:4
26,19:4
26,20:4
26,21:1
26,22:3
26,23:4
26,24:1
26,29:4
26,30:1
26,31:3
26,32:4
26,35:5
26,37:6
26,38:5
26,39:3
26,43:1
27,3:3
27,4:1
27,5:6
27,6:1
27,9:4
27,10:4
27,15:3
27,16:6
27,18:4
27,19:4
27,20:4
27,21:1
27,22:3
27,23:4
27,24:1
27,25:3
27,29:4
27,30:1
27,31:3
27,32:4
27,37:6
27,39:3
27,43:1
28,3:3
28,4:1
28,5:6
28,6:1
28,9:4
28,10:4
28,23:4
28,24:1
28,25:3
28,29:4
28,30:1
28,31:3
28,32:4
28,35:5
28,37:6
28,38:5
28,39:3
28,43:1
29,3:1
29,4:3
29,5:2
29,6:3
29,15:1
29,16:2
29,17:1
29,21:3
29,22:1
29,24:3
29,25:1
29,26:4
29,27:4
29,28:4
29,30:3
29,31:1
29,33:4
29,34:4
29,35:1
29,36:4
29,37:2
29,38:1
29,39:1
29,40:1
29,41:1
29,43:3
30,3:2
30,5:5
30,9:3
30,10:3
30,15:2
30,16:5
30,17:2
30,18:3
30,19:3
30,20:3
30,22:2
30,23:3
30,25:2
30,26:1
30,27:1
30,28:1
30,29:3
30,31:2
30,32:3
30,33:1
30,34:1
30,35:4
30,36:1
30,37:5
30,38:4
30,39:2
30,40:4
30,41:4
31,4:2
31,5:3
31,6:2
31,9:1
31,10:1
31,16:3
31,18:1
31,19:1
31,20:1
31,21:2
31,23:1
31,24:2
31,26:3
31,27:3
31,28:3
31,29:1
31,30:2
31,32:1
31,33:3
31,34:3
31,35:2
31,36:3
31,37:3
31,38:2
31,40:2
31,41:2
31,43:2
32,3:1
32,4:3
32,5:2
32,6:3
32,15:1
32,16:2
32,17:1
32,21:3
32,22:1
32,24:3
32,25:1
32,26:4
32,27:4
32,28:4
32,30:3
32,31:1
32,33:4
32,34:4
32,35:1
32,36:4
32,37:2
32,38:1
32,39:1
32,40:1
32,41:1
32,43:3
33,3:3
33,4:1
33,5:6
33,6:1
33,9:4
33,10:4
33,20:4
33,21:1
33,22:3
33,25:3
33,29:4
33,30:1
33,31:3
33,32:4
33,35:5
33,37:6
33,39:3
33,43:1
34,3:3
34,4:1
34,5:6
34,6:1
34,9:4
34,10:4
34,20:4
34,21:1
34,22:3
34,25:3
34,29:4
34,30:1
34,31:3
34,32:4
34,35:5
34,37:6
34,38:5
34,39:3
34,43:1
35,3:2
35,4:4
35,5:1
35,6:4
35,9:1
35,10:1
35,20:1
35,21:4
35,22:2
35,25:2
35,26:5
35,28:5
35,29:1
35,30:4
35,31:2
35,32:1
35,34:5
35,36:5
35,37:1
35,39:2
35,43:4
36,3:3
36,4:1
36,5:6
36,6:1
36,9:4
36,10:4
36,20:4
36,21:1
36,22:3
36,25:3
36,29:4
36,30:1
36,31:3
36,32:4
36,35:5
36,37:6
36,38:5
36,39:3
36,43:1
37,1:3
37,3:3
37,4:5
37,6:5
37,7:2
37,9:2
37,10:2
37,11:3
37,13:3
37,14:2
37,15:3
37,17:3
37,18:2
37,19:2
37,20:2
37,21:5
37,22:3
37,23:2
37,24:5
37,25:3
37,26:6
37,27:6
37,28:6
37,29:2
37,30:5
37,31:3
37,32:2
37,33:6
37,34:6
37,35:1
37,36:6
37,38:1
37,39:3
37,40:1
37,41:1
37,42:1
37,43:5
37,44:1
37,45:1
38,3:2
38,4:4
38,5:1
38,6:4
38,9:1
38,10:1
38,29:1
38,30:4
38,31:2
38,32:1
38,37:1
38,39:2
38,43:4
39,2:3
39,4:2
39,5:3
39,6:2
39,7:1
39,8:3
39,9:1
39,10:1
39,14:1
39,16:3
39,18:1
39,19:1
39,20:1
39,21:2
39,23:1
39,24:2
39,26:3
39,27:3
39,28:3
39,29:1
39,30:2
39,32:1
39,33:3
39,34:3
39,35:2
39,36:3
39,37:3
39,38:2
39,40:2
39,41:2
39,43:2
40,3:2
40,4:4
40,5:1
40,6:4
40,9:1
40,10:1
40,29:1
40,30:4
40,31:2
40,32:1
40,37:1
40,39:2
40,43:4
41,37:1
41,43:4
42,37:1
42,43:4
43,1:2
43,2:5
43,3:2
43,5:5
43,7:3
43,8:5
43,9:3
43,10:3
43,11:2
43,13:2
43,14:3
43,15:2
43,16:5
43,17:2
43,18:3
43,19:3
43,20:3
43,22:2
43,23:3
43,25:2
43,26:1
43,27:1
43,28:1
43,29:3
43,31:2
43,32:3
43,33:1
43,34:1
43,35:4
43,36:1
43,38:4
43,39:2
43,40:4
43,41:4
43,42:4
43,44:4
43,45:4
44,37:1
44,43:4
45,37:1
45,43:4

<setup times backward>
1,4:2
1,6:2
1,21:2
1,24:2
1,43:2
2,1:3
2,3:3
2,7:2
2,9:2
2,11:3
2,12:3
2,13:3
2,15:3
2,18:2
2,19:2
2,20:2
2,21:5
2,22:3
2,23:2
2,24:5
2,39:3
2,43:5
3,4:2
3,6:2
3,21:2
3,24:2
3,26:3
3,27:3
3,28:3
3,30:2
3,33:3
3,34:3
3,36:3
3,43:2
4,26:1
4,27:1
4,28:1
4,33:1
4,34:1
4,36:1
5,1:3
5,3:3
5,4:5
5,6:5
5,7:2
5,10:2
5,11:3
5,12:3
5,13:3
5,14:2
5,15:3
5,17:3
5,18:2
5,19:2
5,20:2
5,21:5
5,22:3
5,23:2
5,24:5
5,25:3
5,26:6
5,27:6
5,28:6
5,29:2
5,30:5
5,31:3
5,32:2
5,33:6
5,34:6
5,35:1
5,36:6
5,38:1
5,39:3
5,40:1
5,43:5
6,26:1
6,27:1
6,28:1
6,33:1
6,34:1
6,36:1
7,1:1
7,3:1
7,4:3
7,6:3
7,11:1
7,12:1
7,13:1
7,15:1
7,21:3
7,22:1
7,24:3
7,39:1
7,43:3
8,1:3
8,3:3
8,4:5
8,6:5
8,7:2
8,9:2
8,11:3
8,12:3
8,13:3
8,15:3
8,18:2
8,19:2
8,20:2
8,21:5
8,22:3
8,23:2
8,24:5
8,39:3
8,43:5
9,1:1
9,3:1
9,4:3
9,6:3
9,11:1
9,12:1
9,13:1
9,15:1
9,17:1
9,21:3
9,22:1
9,24:3
9,25:1
9,26:4
9,27:4
9,28:4
9,30:3
9,31:1
9,33:4
9,34:4
9,36:4
9,39:1
9,43:3
10,1:1
10,3:1
10,4:3
10,6:3
10,11:1
10,12:1
10,13:1
10,15:1
10,17:1
10,21:3
10,22:1
10,24:3
10,25:1
10,26:4
10,27:4
10,28:4
10,30:3
10,31:1
10,33:4
10,34:4
10,36:4
10,39:1
10,43:3
11,4:2
11,6:2
11,43:2
12,4:2
12,6:2
13,4:2
13,6:2
13,43:2
14,1:1
14,3:1
14,4:3
14,6:3
14,11:1
14,12:1
14,13:1
14,15:1
14,21:3
14,22:1
14,24:3
14,39:1
14,43:3
15,4:2
15,6:2
15,26:3
15,27:3
15,30:2
15,43:2
16,1:3
16,3:3
16,4:5
16,6:5
16,7:2
16,9:2
16,10:2
16,11:3
16,12:3
16,13:3
16,14:2
16,15:3
16,17:3
16,18:2
16,23:2
16,24:5
16,25:3
16,26:6
16,27:6
16,29:2
16,30:5
16,31:3
16,32:2
16,39:3
16,43:5
17,4:2
17,6:2
17,21:2
17,24:2
17,30:2
17,43:2
18,1:1
18,3:1
18,4:3
18,6:3
18,11:1
18,12:1
18,13:1
18,15:1
18,17:1
18,24:3
18,25:1
18,26:4
18,27:4
18,30:3
18,31:1
18,39:1
18,43:3
19,1:1
19,3:1
19,4:3
19,6:3
19,11:1
19,12:1
19,13:1
19,15:1
19,17:1
19,24:3
19,25:1
19,26:4
19,27:4
19,30:3
19,31:1
19,39:1
19,43:3
20,1:1
20,3:1
20,4:3
20,6:3
20,11:1
20,12:1
20,13:1
20,15:1
20,17:1
20,24:3
20,25:1
20,26:4
20,27:4
20,30:3
20,31:1
20,33:4
20,34:4
20,36:4
20,39:1
20,43:3
21,26:1
21,27:1
21,33:1
21,34:1
21,36:1
22,4:2
22,6:2
22,21:2
22,24:2
22,26:3
22,27:3
22,30:2
22,33:3
22,34:3
22,36:3
22,43:2
23,1:1
23,3:1
23,4:3
23,6:3
23,11:1
23,12:1
23,13:1
23,15:1
23,17:1
23,21:3
23,22:1
23,24:3
23,25:1
23,26:4
23,27:4
23,28:4
23,30:3
23,31:1
23,39:1
23,43:3
24,26:1
24,27:1
24,28:1
25,4:2
25,6:2
25,21:2
25,24:2
25,27:3
25,28:3
25,30:2
25,33:3
25,34:3
25,36:3
25,43:2
29,1:1
29,3:1
29,4:3
29,6:3
29,11:1
29,12:1
29,13:1
29,15:1
29,17:1
29,21:3
29,22:1
29,24:3
29,25:1
29,26:4
29,27:4
29,28:4
29,30:3
29,31:1
29,33:4
29,34:4
29,36:4
29,39:1
29,43:3
30,26:1
30,27:1
30,28:1
30,33:1
30,34:1
30,36:1
31,4:2
31,6:2
31,21:2
31,24:2
31,26:3
31,27:3
31,28:3
31,30:2
31,33:3
31,34:3
31,36:3
31,43:2
32,1:1
32,3:1
32,4:3
32,6:3
32,11:1
32,12:1
32,13:1
32,15:1
32,17:1
32,21:3
32,22:1
32,24:3
32,25:1
32,26:4
32,27:4
32,28:4
32,30:3
32,31:1
32,33:4
32,34:4
32,36:4
32,39:1
32,43:3
35,1:2
35,3:2
35,4:4
35,6:4
35,7:1
35,9:1
35,10:1
35,11:2
35,12:2
35,13:2
35,14:1
35,15:2
35,17:2
35,18:1
35,19:1
35,20:1
35,21:4
35,22:2
35,23:1
35,24:4
35,25:2
35,26:5
35,27:5
35,28:5
35,29:1
35,30:4
35,31:2
35,32:1
35,33:5
35,34:5
35,36:5
35,39:2
35,43:4
37,1:3
37,3:3
37,4:5
37,6:5
37,7:2
37,9:2
37,10:2
37,11:3
37,12:3
37,13:3
37,14:2
37,15:3
37,17:3
37,18:2
37,19:2
37,20:2
37,21:5
37,22:3
37,23:2
37,24:5
37,25:3
37,26:6
37,27:6
37,28:6
37,29:2
37,30:5
37,31:3
37,32:2
37,33:6
37,34:6
37,35:1
37,36:6
37,38:1
37,39:3
37,40:1
37,41:1
37,42:1
37,44:1
37,45:1
38,1:2
38,3:2
38,4:4
38,6:4
38,7:1
38,9:1
38,10:1
38,11:2
38,12:2
38,13:2
38,14:1
38,15:2
38,17:2
38,18:1
38,19:1
38,20:1
38,21:4
38,22:2
38,23:1
38,24:4
38,25:2
38,26:5
38,27:5
38,28:5
38,29:1
38,30:4
38,31:2
38,32:1
38,33:5
38,34:5
38,36:5
38,39:2
38,43:4
39,4:2
39,6:2
39,21:2
39,24:2
39,26:3
39,27:3
39,28:3
39,30:2
39,33:3
39,34:3
39,36:3
39,43:2
40,1:2
40,3:2
40,4:4
40,6:4
40,7:1
40,9:1
40,10:1
40,11:2
40,12:2
40,13:2
40,14:1
40,15:2
40,17:2
40,18:1
40,19:1
40,20:1
40,21:4
40,22:2
40,23:1
40,24:4
40,25:2
40,26:5
40,27:5
40,28:5
40,29:1
40,30:4
40,31:2
40,32:1
40,33:5
40,34:5
40,36:5
40,39:2
40,43:4
41,1:2
41,3:2
41,4:4
41,6:4
41,7:1
41,9:1
41,10:1
41,11:2
41,12:2
41,13:2
41,14:1
41,15:2
41,17:2
41,18:1
41,19:1
41,20:1
41,21:4
41,22:2
41,23:1
41,24:4
41,25:2
41,26:5
41,27:5
41,28:5
41,29:1
41,30:4
41,31:2
41,32:1
41,33:5
41,34:5
41,36:5
41,39:2
41,43:4
42,1:2
42,3:2
42,4:4
42,6:4
42,7:1
42,9:1
42,10:1
42,11:2
42,12:2
42,13:2
42,14:1
42,15:2
42,17:2
42,18:1
42,19:1
42,20:1
42,21:4
42,22:2
42,23:1
42,24:4
42,25:2
42,26:5
42,27:5
42,28:5
42,29:1
42,30:4
42,31:2
42,32:1
42,33:5
42,34:5
42,36:5
42,39:2
42,43:4
43,26:1
43,27:1
43,28:1
43,33:1
43,34:1
43,36:1
44,1:2
44,3:2
44,4:4
44,6:4
44,7:1
44,9:1
44,10:1
44,11:2
44,12:2
44,13:2
44,14:1
44,15:2
44,17:2
44,18:1
44,19:1
44,20:1
44,21:4
44,22:2
44,23:1
44,24:4
44,25:2
44,26:5
44,27:5
44,28:5
44,29:1
44,30:4
44,31:2
44,32:1
44,33:5
44,34:5
44,36:5
44,39:2
44,43:4
45,1:2
45,3:2
45,4:4
45,6:4
45,7:1
45,9:1
45,10:1
45,11:2
45,12:2
45,13:2
45,14:1
45,15:2
45,17:2
45,18:1
45,19:1
45,20:1
45,21:4
45,22:2
45,23:1
45,24:4
45,25:2
45,26:5
45,27:5
45,28:5
45,29:1
45,30:4
45,31:2
45,32:1
45,33:5
45,34:5
45,36:5
45,39:2
45,43:4

<end>

<optimal SALBP-1 value>
9


<rand seed>
467321153

